NAME : XML100_2352_08
DIMENSION : 101
NB_CLUSTERS : 8
CLUSTERING_ALG : KMedoids
CLUSTERING_PARAMS : k(7)
CLUSTERS
1 0
2 1 7 9 21 33 38 39 48 56 66 68 82 87 88 89 94
3 27 29 31 32 35 47 55 58 65 78 93 96
4 5 6 13 18 22 23 24 43 44 45 46 53 54 61 63 64 69 77 79 81 83 84 91 92
5 3 10 15 42 57 67 73 80 97
6 2 4 14 17 19 20 36 41 51 60 71 75 76
7 11 12 16 37 40 52 59 70 72 74 85 86 98 99 100
8 8 25 26 28 30 34 49 50 62 90 95
EOF